New structure                           
   1.00000000000000     
     8.4687800635899997   -0.0000009414420104   -0.0000019047021039
    -0.0000051444422135    8.4687792553300003   -0.0000009839270008
    -0.0000009217850495   -0.0000002346419302    5.3741160655800000
   Sb   S    Cu
     2    10     8
Direct
  0.0000001372403347  0.5000000847259969  0.7500003119900001
  0.5000000114320002  0.9999999141249987  0.2499997557929987
  0.1043932210120033  0.7104927783209973  0.4868905040960030
  0.8956065357619991  0.2895071271450007  0.4868904805540026
  0.7104928566900028  0.8956072066510004  0.5131095404260009
  0.2895071577950006  0.1043929500400012  0.5131094961299993
  0.6043969910040019  0.2104885327959991  0.9868889930650013
  0.3956031036629994  0.7895115531470012  0.9868890731769966
  0.2104884500740027  0.3956034297579976  0.0131110323010972
  0.7895114783609998  0.6043964085479985  0.0131112379043969
  0.9999999031590008  0.0000001498498179  0.9999996093619998
  0.5000001290400036  0.4999998016450036  0.4999994940190007
  0.6931999880129993  0.4025395964229972  0.2593666761559987
  0.3067998818539976  0.5974604969569981  0.2593666099470013
  0.4025395318880030  0.3067999212140009  0.7406334705329982
  0.5974604945199999  0.6932001784769994  0.7406334764280018
  0.1931999587020030  0.9025397607300008  0.7593668800910010
  0.8068001236470010  0.0974601321340032  0.7593669198200033
  0.9025397953460015  0.8068000559400019  0.2406332939769982
  0.0974602588000977  0.1931999293730016  0.2406331442300029
 
  0.00000000E+00  0.00000000E+00  0.00000000E+00
  0.00000000E+00  0.00000000E+00  0.00000000E+00
  0.00000000E+00  0.00000000E+00  0.00000000E+00
  0.00000000E+00  0.00000000E+00  0.00000000E+00
  0.00000000E+00  0.00000000E+00  0.00000000E+00
  0.00000000E+00  0.00000000E+00  0.00000000E+00
  0.00000000E+00  0.00000000E+00  0.00000000E+00
  0.00000000E+00  0.00000000E+00  0.00000000E+00
  0.00000000E+00  0.00000000E+00  0.00000000E+00
  0.00000000E+00  0.00000000E+00  0.00000000E+00
  0.00000000E+00  0.00000000E+00  0.00000000E+00
  0.00000000E+00  0.00000000E+00  0.00000000E+00
  0.00000000E+00  0.00000000E+00  0.00000000E+00
  0.00000000E+00  0.00000000E+00  0.00000000E+00
  0.00000000E+00  0.00000000E+00  0.00000000E+00
  0.00000000E+00  0.00000000E+00  0.00000000E+00
  0.00000000E+00  0.00000000E+00  0.00000000E+00
  0.00000000E+00  0.00000000E+00  0.00000000E+00
  0.00000000E+00  0.00000000E+00  0.00000000E+00
  0.00000000E+00  0.00000000E+00  0.00000000E+00
