New structure
1.0
  8.46878006359 -9.414420104e-07 -1.9047021039e-06
  -5.1444422135e-06 8.46877925533 -9.839270008e-07
  -9.217850495e-07 -2.346419302e-07 5.37411606558
2 10 8 
direct
  1.372403347e-07 0.500000084726 0.75000031199
  0.500000011432 0.999999914125 0.249999755793
  0.104393221012 0.710492778321 0.486890504096
  0.895606535762 0.289507127145 0.486890480554
  0.71049285669 0.895607206651 0.513109540426
  0.289507157795 0.10439295004 0.51310949613
  0.604396991004 0.210488532796 0.986888993065
  0.395603103663 0.789511553147 0.986889073177
  0.210488450074 0.395603429758 0.0131110323011
  0.789511478361 0.604396408548 0.0131112379044
  0.999999903159 1.498498179e-07 0.999999609362
  0.50000012904 0.499999801645 0.499999494019
  0.693199988013 0.402539596423 0.259366676156
  0.306799881854 0.597460496957 0.259366609947
  0.402539531888 0.306799921214 0.740633470533
  0.59746049452 0.693200178477 0.740633476428
  0.193199958702 0.90253976073 0.759366880091
  0.806800123647 0.097460132134 0.75936691982
  0.902539795346 0.80680005594 0.240633293977
  0.0974602588001 0.193199929373 0.24063314423
